p cnf 18 37
-1 0
2 0
3 0
4 0
-5 0
6 0
-1 7 4 0
1 -7 4 0
8 0
-8 9 11 0
-9 -11 0
-9 8 0
-9 10 0
-10 9 11 0
-10 12 0
-9 -7 0
-11 7 0
-11 8 0
-11 10 0
-12 10 0
12 0
-7 13 10 0
7 -13 10 0
14 0
-14 15 17 0
-15 -17 0
-15 14 0
-15 16 0
-16 15 17 0
-16 18 0
-15 -13 0
-17 13 0
-17 14 0
-17 16 0
-18 16 0
18 0
5 11 0
